30
5
504334
0
0
55 66 46 58 49
1
0
53 60 44 62 51
2
0
57 62 43 62 50
3
0
58 62 44 58 47
4
0
60 61 49 59 54
5
0
58 59 44 58 54
6
0
57 63 46 61 57
7
0
58 63 46 62 55
8
0
58 58 42 60 51
9
0
54 60 46 63 52
10
0
53 62 44 59 54
11
0
58 59 44 56 52
12
0
56 62 44 57 53
13
0
50 59 46 61 53
14
0
55 60 46 59 51
15
0
55 61 41 61 51
16
0
54 58 43 59 53
17
0
54 63 45 61 51
18
0
56 63 43 58 53
19
0
57 65 44 57 53
20
0
58 52 44 56 52
21
0
54 58 45 61 49
22
0
57 61 45 61 53
23
0
59 59 44 59 52
24
0
59 61 45 58 51
25
0
56 60 48 64 53
26
0
57 60 45 63 55
27
0
58 58 45 61 53
28
0
58 63 42 57 55
29
0
55 58 49 57 51
